c Sudoku solution
p cnf 729 0
135 0
163 0
219 0
252 0
276 0
291 0
311 0
326 0
531 0
545 0
559 0
587 0
616 0
624 0
653 0
662 0
782 0
825 0
415 0
846 0
942 0
743 0
156 0
141 0
349 0
877 0
913 0
927 0
721 0
117 0
397 0
429 0
955 0
969 0
974 0
981 0
671 0
486 0
566 0
594 0
184 0
938 0
736 0
714 0
812 0
839 0
996 0
518 0
637 0
648 0
689 0
695 0
775 0
799 0
179 0
767 0
758 0
457 0
461 0
444 0
247 0
851 0
864 0
354 0
234 0
192 0
128 0
332 0
223 0
522 0
433 0
573 0
472 0
498 0
378 0
383 0
285 0
268 0
365 0
888 0
893 0
